216542.31,21.42,23.46
206537.01,22.45,24.59
214696.95,21.6,23.66
207700.77,22.33,24.46
213422.69,21.73,23.8
213563.68,21.71,23.78
222226.63,20.87,22.86
217003.35,21.37,23.41
207700.4,22.33,24.46
219143.0,21.16,23.18
207200.65,22.38,24.51
217599.54,21.31,23.34
214375.76,21.63,23.69
221250.21,20.96,22.96
220529.36,21.03,23.03
215197.18,21.55,23.6
213105.06,21.76,23.84
209850.12,22.1,24.2
221989.31,20.89,22.88
227681.89,20.37,22.31
